% seed = 0

mint = 24;
% maxt = 71;

nActs = 32;
dur = [0,2,6,1,2,3,3,2,1,1,1,2,4,1,3,3,4,3,2,2,2,1,2,4,2,3,2,2,1,3,3,0];

nSkills = 12;
sreq = [| 0,0,0,0,0,0,0,0,0,0,0,0,
	| 0,0,0,0,1,0,0,0,0,0,0,0,
	| 0,0,1,0,0,1,0,0,0,0,1,0,
	| 0,0,0,0,1,0,1,0,0,0,2,0,
	| 1,0,1,0,0,1,0,1,0,0,0,0,
	| 0,0,0,1,0,1,0,0,0,0,0,0,
	| 0,0,1,0,0,0,0,1,0,0,0,0,
	| 0,1,0,0,0,0,0,0,0,0,0,0,
	| 0,1,0,0,0,0,0,0,0,0,0,0,
	| 0,0,1,0,0,0,0,0,0,0,1,0,
	| 0,0,0,0,0,2,0,0,1,0,0,0,
	| 0,0,1,0,1,0,0,0,0,0,0,0,
	| 0,0,0,0,0,0,0,0,1,0,0,0,
	| 0,0,1,1,0,0,1,0,0,0,0,0,
	| 0,0,0,0,0,1,0,0,0,0,1,0,
	| 0,1,1,0,0,0,0,0,0,0,0,0,
	| 0,0,1,0,1,1,0,0,0,0,0,0,
	| 0,0,2,0,0,0,1,0,0,0,0,0,
	| 0,0,1,1,0,0,0,0,0,1,0,0,
	| 0,0,0,0,1,0,0,0,0,0,1,0,
	| 0,1,2,0,1,0,0,0,0,0,0,0,
	| 0,0,0,0,0,0,0,0,1,0,1,0,
	| 0,0,0,0,0,0,0,0,0,0,1,0,
	| 1,0,1,1,1,0,0,0,0,0,0,0,
	| 0,0,0,1,0,0,0,0,0,0,0,0,
	| 0,0,1,0,0,0,0,0,0,0,1,0,
	| 0,0,0,1,0,0,0,0,0,2,0,0,
	| 0,0,0,0,0,2,0,0,0,0,0,0,
	| 0,0,1,0,0,1,0,0,1,0,1,1,
	| 0,0,2,0,0,0,1,0,0,0,0,0,
	| 0,0,1,0,1,1,0,0,0,0,1,0,
	| 0,0,0,0,0,0,0,0,0,0,0,0, |];

% SumOfsreq = 75;

nResources = 13;
mastery = [| false,false,false,false,true,true,false,false,false,false,false,true,
	| true,true,true,true,true,true,false,false,false,false,false,false,
	| false,false,false,false,false,true,false,false,false,false,false,false,
	| false,false,false,false,false,false,true,true,true,false,false,false,
	| false,false,true,false,false,false,true,true,true,true,true,true,
	| false,false,false,true,true,true,false,false,false,false,false,false,
	| false,false,true,false,false,false,false,false,false,false,false,true,
	| false,false,false,false,false,false,false,false,false,false,true,true,
	| false,false,false,true,true,true,true,true,true,false,false,false,
	| false,false,true,false,false,false,false,false,false,false,false,false,
	| false,true,true,false,false,false,false,false,false,false,false,false,
	| false,false,false,true,true,true,false,false,false,true,true,true,
	| false,false,false,false,false,false,false,false,false,false,false,true, |];

nPrecs = 58;
pred = [1,1,1,2,2,3,3,3,4,4,4,5,5,5,6,7,7,7,8,8,9,9,9,10,10,10,11,11,12,12,12,13,13,14,14,15,16,16,17,18,18,19,20,20,20,21,22,22,23,24,25,25,26,27,28,29,30,31];
succ = [2,3,4,6,8,5,6,7,18,22,16,25,11,12,9,20,12,16,9,16,10,22,26,25,29,23,14,22,13,31,15,17,24,21,15,27,17,19,27,26,29,25,27,29,23,31,28,24,24,30,28,30,28,30,31,32,32,32];

nUnrels = 244;
unpred = [2,2,2,2,2,2,2,2,2,2,2,2,3,3,3,4,4,4,4,4,4,4,4,4,4,4,4,4,4,5,5,5,5,5,5,5,5,5,5,5,5,6,6,6,6,6,6,6,6,6,6,6,6,6,6,7,7,7,7,7,7,7,7,7,8,8,8,8,8,8,8,8,9,9,9,9,9,9,9,9,9,9,9,9,10,10,10,10,10,10,10,10,10,10,10,10,10,10,11,11,11,11,11,11,11,11,11,11,11,12,12,12,12,12,12,12,12,12,12,12,12,13,13,13,13,13,13,13,13,13,13,13,13,13,13,14,14,14,14,14,14,14,14,14,14,14,14,15,15,15,15,15,15,15,15,15,15,15,15,15,15,16,16,16,16,16,16,16,16,17,17,17,17,17,17,17,17,17,17,17,17,18,18,18,18,18,18,18,18,18,19,19,19,19,19,19,19,19,20,20,20,20,20,20,21,21,21,21,21,21,21,21,21,22,22,22,22,22,23,23,23,23,23,23,24,24,24,24,24,24,25,25,25,26,26,26,27,27,27,28,28,29,29,30];
unsucc = [3,4,5,7,11,12,13,14,15,18,20,21,4,8,18,5,6,7,8,9,10,11,12,13,14,15,20,21,23,6,7,8,9,10,16,18,19,20,23,26,29,7,8,11,12,13,14,15,16,17,18,19,20,21,27,8,9,10,11,14,18,21,22,26,11,12,13,14,15,18,20,21,11,12,13,14,15,16,17,18,19,20,21,27,11,12,13,14,15,16,17,18,19,20,21,22,26,27,12,13,16,17,18,19,20,23,25,26,29,14,16,18,19,20,21,22,23,25,26,28,29,14,15,16,18,19,20,21,22,23,25,26,28,29,31,16,17,18,19,20,22,23,24,25,26,28,29,16,17,18,19,20,21,22,23,24,25,26,28,29,31,18,20,21,22,23,24,26,29,18,19,20,21,22,23,24,25,26,28,29,31,19,20,21,22,23,24,25,27,30,20,21,22,23,24,26,27,29,21,22,25,26,28,31,22,23,24,25,26,27,28,29,30,23,25,26,27,29,25,26,27,28,29,31,25,26,27,28,29,31,26,27,29,27,29,30,28,29,31,29,30,30,31,31];

USEFUL_RES = [{},
	{1,2,6,9,12},
	{1,2,3,5,6,7,8,9,10,11,12},
	{1,2,4,5,6,8,9,12},
	{1,2,3,4,5,6,7,9,10,11,12},
	{1,2,3,6,9,12},
	{2,4,5,7,9,10,11},
	{2,11},
	{2,11},
	{2,5,7,8,10,11,12},
	{1,2,3,4,5,6,9,12},
	{1,2,5,6,7,9,10,11,12},
	{4,5,9},
	{2,4,5,6,7,9,10,11,12},
	{1,2,3,5,6,8,9,12},
	{2,5,7,10,11},
	{1,2,3,5,6,7,9,10,11,12},
	{2,4,5,7,9,10,11},
	{2,5,6,7,9,10,11,12},
	{1,2,5,6,8,9,12},
	{1,2,5,6,7,9,10,11,12},
	{4,5,8,9,12},
	{5,8,12},
	{1,2,5,6,7,9,10,11,12},
	{2,6,9,12},
	{2,5,7,8,10,11,12},
	{2,5,6,9,12},
	{1,2,3,6,9,12},
	{1,2,3,4,5,6,7,8,9,10,11,12,13},
	{2,4,5,7,9,10,11},
	{1,2,3,5,6,7,8,9,10,11,12},
	{}];

POTENTIAL_ACT = [{2,3,4,5,6,11,12,15,17,20,21,24,28,29,31},
	{2,3,4,5,6,7,8,9,10,11,12,14,15,16,17,18,19,20,21,24,25,26,27,28,29,30,31},
	{3,5,6,11,15,17,28,29,31},
	{4,5,7,11,13,14,18,22,29,30},
	{3,4,5,7,10,11,12,13,14,15,16,17,18,19,20,21,22,23,24,26,27,29,30,31},
	{2,3,4,5,6,11,12,14,15,17,19,20,21,24,25,27,28,29,31},
	{3,5,7,10,12,14,16,17,18,19,21,24,26,29,30,31},
	{3,4,10,15,20,22,23,26,29,31},
	{2,3,4,5,6,7,11,12,13,14,15,17,18,19,20,21,22,24,25,27,28,29,30,31},
	{3,5,7,10,12,14,16,17,18,19,21,24,26,29,30,31},
	{3,5,7,8,9,10,12,14,16,17,18,19,21,24,26,29,30,31},
	{2,3,4,5,6,10,11,12,14,15,17,19,20,21,22,23,24,25,26,27,28,29,31},
	{29}];
